c n orig vars 33
p cnf 109 339
34 0
35 -33 0
35 -52 0
-35 33 52 0
-36 97 0
-36 -67 0
-36 -39 0
-36 64 0
-36 35 0
36 -97 67 39 -64 -35 0
37 -18 0
37 -1 0
-37 18 1 0
-38 97 0
-38 67 0
-38 39 0
-38 64 0
-38 35 0
38 -97 -67 -39 -64 -35 0
39 -7 0
39 -63 0
-39 7 63 0
-40 97 0
-40 67 0
-40 39 0
-40 -64 0
-40 -35 0
40 -97 -67 -39 64 35 0
-41 -51 0
-41 56 0
-41 75 0
41 51 -56 -75 0
-42 97 0
-42 -67 0
-42 39 0
-42 64 0
-42 -35 0
42 -97 67 -39 -64 35 0
-43 46 0
-43 65 0
-43 76 0
43 -46 -65 -76 0
-44 81 0
-44 73 0
-44 -80 0
44 -81 -73 80 0
-45 -97 0
-45 -67 0
-45 39 0
-45 64 0
-45 35 0
45 97 67 -39 -64 -35 0
46 -11 0
46 -22 0
-46 11 22 0
-47 -97 0
-47 67 0
-47 39 0
-47 -64 0
-47 35 0
47 97 -67 -39 64 -35 0
48 -11 0
48 -21 0
-48 11 21 0
34 -38 0
34 -53 0
34 -45 0
34 -62 0
34 -40 0
34 -105 0
34 -54 0
34 -49 0
34 -85 0
34 -42 0
34 -95 0
34 -90 0
34 -88 0
34 -83 0
34 -36 0
34 -47 0
-34 38 53 45 62 40 105 54 49 85 42 95 90 88 83 36 47 0
-49 97 0
-49 67 0
-49 39 0
-49 64 0
-49 -35 0
49 -97 -67 -39 -64 35 0
50 -77 0
50 -4 0
-50 77 4 0
51 -6 0
51 -10 0
-51 6 10 0
-52 89 0
-52 109 0
52 -89 -109 0
-53 97 0
-53 67 0
-53 -39 0
-53 -64 0
-53 35 0
53 -97 -67 39 64 -35 0
-54 97 0
-54 67 0
-54 -39 0
-54 64 0
-54 -35 0
54 -97 -67 39 -64 35 0
-55 -78 0
-55 50 0
-55 94 0
55 78 -50 -94 0
56 -18 0
56 -5 0
-56 18 5 0
57 -26 0
57 -55 0
57 -100 0
57 -101 0
57 -99 0
-57 26 55 100 101 99 0
-58 69 0
-58 31 0
58 -69 -31 0
-59 109 0
-59 92 0
59 -109 -92 0
-60 -66 0
-60 48 0
-60 37 0
60 66 -48 -37 0
-61 66 0
-61 48 0
-61 37 0
61 -66 -48 -37 0
-62 -97 0
-62 67 0
-62 39 0
-62 64 0
-62 -35 0
62 97 -67 -39 -64 35 0
-63 72 0
-63 109 0
63 -72 -109 0
64 -13 0
64 -59 0
-64 13 59 0
65 -18 0
65 -30 0
-65 18 30 0
66 -24 0
66 -10 0
-66 24 10 0
67 -108 0
67 -15 0
-67 108 15 0
-68 -81 0
-68 73 0
-68 80 0
68 81 -73 -80 0
69 -104 0
69 -70 0
69 -106 0
69 -41 0
-69 104 70 106 41 0
-70 51 0
-70 -56 0
-70 75 0
70 -51 56 -75 0
-71 84 0
-71 2 0
71 -84 -2 0
72 -55 0
72 -100 0
72 -101 0
72 -29 0
72 -99 0
-72 55 100 101 29 99 0
73 -77 0
73 -23 0
-73 77 23 0
-74 -46 0
-74 65 0
-74 76 0
74 46 -65 -76 0
75 -11 0
75 -17 0
-75 11 17 0
76 -8 0
76 -10 0
-76 8 10 0
-77 27 0
-77 107 0
77 -27 -107 0
78 -14 0
78 -71 0
-78 14 71 0
-79 66 0
-79 -48 0
-79 37 0
79 -66 48 -37 0
80 -32 0
80 -58 0
-80 32 58 0
81 -9 0
81 -71 0
-81 9 71 0
-82 66 0
-82 48 0
-82 -37 0
82 -66 -48 37 0
-83 97 0
-83 67 0
-83 39 0
-83 -64 0
-83 35 0
83 -97 -67 -39 64 -35 0
84 -61 0
84 -60 0
84 -82 0
84 -79 0
-84 61 60 82 79 0
-85 97 0
-85 -67 0
-85 39 0
-85 -64 0
-85 35 0
85 -97 67 -39 64 -35 0
-86 46 0
-86 -65 0
-86 76 0
86 -46 65 -76 0
-87 46 0
-87 65 0
-87 -76 0
87 -46 -65 76 0
-88 97 0
-88 -67 0
-88 39 0
-88 64 0
-88 35 0
88 -97 67 -39 -64 -35 0
89 -55 0
89 -100 0
89 -101 0
89 -25 0
89 -99 0
-89 55 100 101 25 99 0
-90 97 0
-90 67 0
-90 -39 0
-90 64 0
-90 35 0
90 -97 -67 39 -64 -35 0
-91 109 0
-91 57 0
91 -109 -57 0
92 -55 0
92 -100 0
92 -101 0
92 -12 0
92 -99 0
-92 55 100 101 12 99 0
-93 81 0
-93 73 0
-93 80 0
93 -81 -73 -80 0
94 -28 0
94 -58 0
-94 28 58 0
-95 -97 0
-95 67 0
-95 -39 0
-95 64 0
-95 35 0
95 97 -67 39 -64 -35 0
-96 81 0
-96 -73 0
-96 80 0
96 -81 73 -80 0
97 -20 0
97 -91 0
-97 20 91 0
98 -55 0
98 -100 0
98 -101 0
98 -19 0
98 -99 0
-98 55 100 101 19 99 0
-99 78 0
-99 -50 0
-99 94 0
99 -78 50 -94 0
-100 78 0
-100 50 0
-100 -94 0
100 -78 -50 94 0
-101 78 0
-101 50 0
-101 94 0
101 -78 -50 -94 0
102 -44 0
102 -93 0
102 -68 0
102 -96 0
-102 44 93 68 96 0
103 -100 0
103 -101 0
103 -99 0
103 -55 0
-103 100 101 99 55 0
-104 51 0
-104 56 0
-104 75 0
104 -51 -56 -75 0
-105 -97 0
-105 67 0
-105 39 0
-105 64 0
-105 35 0
105 97 -67 -39 -64 -35 0
-106 51 0
-106 56 0
-106 -75 0
106 -51 -56 75 0
107 -87 0
107 -43 0
107 -86 0
107 -74 0
-107 87 43 86 74 0
-108 98 0
-108 109 0
108 -98 -109 0
109 -93 0
109 -44 0
109 -68 0
109 -96 0
109 -16 0
-109 93 44 68 96 16 0
